32      4       
11      11      12      12      
0       0       0       0       0       3       2       3       4       
5       0       3       4       2       3       8       9       11      
10      0       0       0       9       2       23      28      
9       0       6       0       6       3       5       7       30      
8       7       0       0       0       3       6       10      13      
4       5       0       0       0       3       12      14      21      
1       0       1       0       9       2       12      24      
7       0       0       8       1       3       17      18      25      
10      10      0       0       0       2       15      19      
9       3       3       8       0       1       14      
2       0       0       4       0       1       30      
6       1       0       0       10      1       23      
10      3       0       4       8       1       26      
9       4       3       0       0       1       22      
7       0       8       4       0       2       16      20      
1       0       0       10      6       1       27      
3       0       10      1       6       1       24      
6       0       0       0       1       1       23      
7       2       0       5       8       1       25      
9       0       5       0       0       1       31      
6       0       0       0       5       2       22      28      
9       10      0       0       6       1       27      
8       7       0       0       0       1       31      
1       4       2       0       5       1       27      
3       0       8       6       3       1       30      
2       0       4       0       6       1       28      
3       0       0       8       0       1       29      
3       7       7       0       5       1       31      
5       0       5       8       7       1       32      
10      0       5       1       0       1       32      
10      5       5       3       10      1       32      
0       0       0       0       0       0       